
******************************************************************************
This program contains Ipopt, a library for large-scale nonlinear optimization.
 Ipopt is released as open source code under the Eclipse Public License (EPL).
         For more information visit http://projects.coin-or.org/Ipopt
******************************************************************************

This is Ipopt version 3.12.6, running with linear solver ma57.

Number of nonzeros in equality constraint Jacobian...:    22497
Number of nonzeros in inequality constraint Jacobian.:        0
Number of nonzeros in Lagrangian Hessian.............:    39984

Reallocating memory for MA57: lfact (8535601)
Total number of variables............................:    10000
                     variables with only lower bounds:        0
                variables with lower and upper bounds:    10000
                     variables with only upper bounds:        0
Total number of equality constraints.................:     7500
Total number of inequality constraints...............:        0
        inequality constraints with only lower bounds:        0
   inequality constraints with lower and upper bounds:        0
        inequality constraints with only upper bounds:        0

iter    objective    inf_pr   inf_du lg(mu)  ||d||  lg(rg) alpha_du alpha_pr  ls
   0  5.6255625e+07 3.00e+00 1.00e+02  -1.0 0.00e+00    -  0.00e+00 0.00e+00   0
   1  5.7925265e+07 2.41e+00 8.02e+01  -1.0 2.00e+00    -  2.34e-01 1.98e-01h  1
   2  5.9138896e+07 2.25e+00 7.52e+01  -1.0 1.14e+00    -  5.57e-01 6.34e-02h  1
   3  6.4015917e+07 1.87e+00 6.21e+01  -1.0 9.27e-01    -  7.98e-01 1.71e-01h  1
   4  7.1876039e+07 1.46e+00 6.92e+01  -1.0 7.92e-01    -  1.00e+00 2.18e-01h  1
   5  8.6449444e+07 8.88e-01 2.95e+01  -1.0 5.89e-01    -  1.00e+00 3.92e-01h  1
   6  9.4888786e+07 6.09e-01 2.03e+01  -1.0 2.79e-01    -  1.00e+00 3.14e-01h  1
   7  1.0742680e+08 2.35e-01 7.81e+00  -1.0 1.63e-01    -  1.00e+00 6.14e-01h  1
   8  1.1593867e+08 1.78e-15 1.84e-10  -1.0 6.29e-02    -  1.00e+00 1.00e+00h  1
   9  1.1576166e+08 1.78e-15 1.21e+00  -2.5 3.89e-02    -  9.78e-01 8.69e-01f  1
iter    objective    inf_pr   inf_du lg(mu)  ||d||  lg(rg) alpha_du alpha_pr  ls
  10  1.1571948e+08 1.78e-15 2.24e-10  -2.5 2.47e-02    -  1.00e+00 1.00e+00f  1
  11  1.1571167e+08 1.78e-15 1.34e-10  -3.8 1.24e-02    -  1.00e+00 1.00e+00f  1
Reallocating memory for MA57: lfact (9458876)
  12  1.1571149e+08 1.78e-15 2.20e-10  -3.8 5.58e-03    -  1.00e+00 1.00e+00f  1
  13  1.1571111e+08 1.78e-15 3.08e-10  -5.7 3.16e-03    -  1.00e+00 1.00e+00f  1
Reallocating memory for MA57: lfact (14599371)
Reallocating memory for MA57: lfact (15582799)
  14  1.1571111e+08 3.55e-15 3.29e-10  -5.7 1.56e-03    -  1.00e+00 1.00e+00f  1
  15  1.1571111e+08 1.78e-15 1.63e-10  -5.7 7.16e-04    -  1.00e+00 1.00e+00f  1
  16  1.1571110e+08 1.78e-15 1.92e-10  -8.6 3.23e-04    -  1.00e+00 1.00e+00f  1
Reallocating memory for MA57: lfact (19742261)
Reallocating memory for MA57: lfact (20784386)
  17  1.1571110e+08 4.55e-13 1.60e-10  -8.6 7.94e-05    -  1.00e+00 1.00e+00f  1
  18  1.1571110e+08 7.11e-13 1.38e-10  -8.6 5.46e-06    -  1.00e+00 1.00e+00h  1

Number of Iterations....: 18

                                   (scaled)                 (unscaled)
Objective...............:   2.2040210316437477e+05    1.1571110416129676e+08
Dual infeasibility......:   1.3766843959404403e-10    7.2275930786873123e-08
Constraint violation....:   7.1143091417980031e-13    7.1143091417980031e-13
Complementarity.........:   2.9616724096264601e-09    1.5548780150538915e-06
Overall NLP error.......:   2.9616724096264601e-09    1.5548780150538915e-06


Number of objective function evaluations             = 19
Number of objective gradient evaluations             = 19
Number of equality constraint evaluations            = 19
Number of inequality constraint evaluations          = 0
Number of equality constraint Jacobian evaluations   = 19
Number of inequality constraint Jacobian evaluations = 0
Number of Lagrangian Hessian evaluations             = 18
Total CPU secs in IPOPT (w/o function evaluations)   =    171.290
Total CPU secs in NLP function evaluations           =      0.080

EXIT: Optimal Solution Found.

************************ CUTEst statistics ************************


 Package used            :  IPOPT
 Problem                 :  CVXQP3    
 # variables             =           10000
 # constraints           =            7500
 # objective functions   =        0.3900000E+02
 # objective gradients   =        0.2000000E+02
 # objective Hessians    =        0.1900000E+02
 # Hessian-vector prdct  =        0.0000000E+00
 # constraints functions =        0.4000000E+02
 # constraints gradients =        0.2100000E+02
 # constraints Hessians  =        0.1900000E+02
 Exit code               =               0
 Final f                 =   0.1157111E+09
 Set up time             =            0.25 seconds
 Solve time              =          436.19 seconds


******************************************************************

System Time =     110.3639984131 s.
